[MD]
steps                     5000
stepsize                  2.0
temperature               T_VAR
bath_coupling             10
shake_hydrogens           on
shake_solute              on
shake_solvent             on
lrf                       on
separate_scaling          on

[cut-offs]
solute_solvent            10
solute_solute             10
solvent_solvent           10
q_atom                    99
lrf                       99

[sphere]
shell_force               10.0
shell_radius              25

[solvent]
radial_force              60.0
polarisation              on
polarisation_force        20.0

[intervals]
output                    5
energy                    10
trajectory                100
non_bond                  25

[files]
topology                  dualtop.top
trajectory                md_0838_0162.dcd
restart                   md_0821_0179.re
energy                    md_0838_0162.en
final                     md_0838_0162.re
fep                       FEP_VAR

[trajectory_atoms]
not excluded

[lambdas]
0.838 0.162

[sequence_restraints]
1      72      1.0 0 1   


[distance_restraints]
1 40 0.0 0.1 0.5 0
2 41 0.0 0.1 0.5 0
3 42 0.0 0.1 0.5 0
4 43 0.0 0.1 0.5 0
5 44 0.0 0.1 0.5 0
6 45 0.0 0.1 0.5 0
7 46 0.0 0.1 0.5 0
8 47 0.0 0.1 0.5 0
9 48 0.0 0.1 0.5 0
10 49 0.0 0.1 0.5 0
11 50 0.0 0.1 0.5 0
12 51 0.0 0.1 0.5 0
13 52 0.0 0.1 0.5 0
14 53 0.0 0.1 0.5 0
15 54 0.0 0.1 0.5 0
16 55 0.0 0.1 0.5 0
17 56 0.0 0.1 0.5 0
18 57 0.0 0.1 0.5 0
19 58 0.0 0.1 0.5 0
20 60 0.0 0.1 0.5 0
