[MD]
steps                     5000
stepsize                  2.0
temperature               T_VAR
bath_coupling             10
shake_hydrogens           on
shake_solute              on
shake_solvent             on
lrf                       on
separate_scaling          on

[cut-offs]
solute_solvent            10
solute_solute             10
solvent_solvent           10
q_atom                    99
lrf                       99

[sphere]
shell_force               10.0
shell_radius              25

[solvent]
radial_force              60.0
polarisation              on
polarisation_force        20.0

[intervals]
output                    5
energy                    10
trajectory                100
non_bond                  25

[files]
topology                  dualtop.top
trajectory                md_0897_0103.dcd
restart                   md_0888_0112.re
energy                    md_0897_0103.en
final                     md_0897_0103.re
fep                       FEP_VAR

[trajectory_atoms]
not excluded

[lambdas]
0.897 0.103

[sequence_restraints]
1      73      1.0 0 1   


[distance_restraints]
1 38 0.0 0.1 0.5 0
2 39 0.0 0.1 0.5 0
3 40 0.0 0.1 0.5 0
4 41 0.0 0.1 0.5 0
5 42 0.0 0.1 0.5 0
6 43 0.0 0.1 0.5 0
7 44 0.0 0.1 0.5 0
8 45 0.0 0.1 0.5 0
9 46 0.0 0.1 0.5 0
10 47 0.0 0.1 0.5 0
11 48 0.0 0.1 0.5 0
12 49 0.0 0.1 0.5 0
13 50 0.0 0.1 0.5 0
14 51 0.0 0.1 0.5 0
15 52 0.0 0.1 0.5 0
16 53 0.0 0.1 0.5 0
17 54 0.0 0.1 0.5 0
18 55 0.0 0.1 0.5 0
19 56 0.0 0.1 0.5 0
20 57 0.0 0.1 0.5 0
21 58 0.0 0.1 0.5 0
22 59 0.0 0.1 0.5 0
23 60 0.0 0.1 0.5 0
