[MD]
steps                     5000
stepsize                  2.0
temperature               150
bath_coupling             2.0
shake_hydrogens           on
shake_solute              off
shake_solvent             on
lrf                       on
separate_scaling          on

[cut-offs]
solute_solvent            10
solute_solute             10
solvent_solvent           10
q_atom                    99
lrf                       99

[sphere]
shell_force               10.0
shell_radius              25

[solvent]
radial_force              60.0
polarisation              on
polarisation_force        20.0

[intervals]
output                    5
trajectory                100
non_bond                  25

[files]
topology                  dualtop.top
trajectory                eq3.dcd
restart                   eq2.re
final                     eq3.re
fep                       FEP_VAR

[trajectory_atoms]
not excluded

[lambdas]
0.500 0.500

[sequence_restraints]
1      79      5.0 0  0

[distance_restraints]
1 42 0.0 0.1 1.5 0
2 43 0.0 0.1 1.5 0
3 44 0.0 0.1 1.5 0
4 45 0.0 0.1 1.5 0
5 46 0.0 0.1 1.5 0
6 47 0.0 0.1 1.5 0
7 48 0.0 0.1 1.5 0
8 49 0.0 0.1 1.5 0
9 50 0.0 0.1 1.5 0
10 51 0.0 0.1 1.5 0
11 52 0.0 0.1 1.5 0
12 53 0.0 0.1 1.5 0
13 54 0.0 0.1 1.5 0
14 55 0.0 0.1 1.5 0
15 56 0.0 0.1 1.5 0
16 57 0.0 0.1 1.5 0
17 58 0.0 0.1 1.5 0
18 59 0.0 0.1 1.5 0
19 60 0.0 0.1 1.5 0
20 61 0.0 0.1 1.5 0
21 62 0.0 0.1 1.5 0
