[MD]
steps                     5000
stepsize                  2.0
temperature               T_VAR
bath_coupling             10
shake_hydrogens           on
shake_solute              on
shake_solvent             on
lrf                       on
separate_scaling          on

[cut-offs]
solute_solvent            10
solute_solute             10
solvent_solvent           10
q_atom                    99
lrf                       99

[sphere]
shell_force               10.0
shell_radius              25

[solvent]
radial_force              60.0
polarisation              on
polarisation_force        20.0

[intervals]
output                    5
energy                    10
trajectory                100
non_bond                  25

[files]
topology                  dualtop.top
trajectory                md_0983_0017.dcd
restart                   md_0981_0019.re
energy                    md_0983_0017.en
final                     md_0983_0017.re
fep                       FEP_VAR

[trajectory_atoms]
not excluded

[lambdas]
0.983 0.017

[sequence_restraints]
1      73      1.0 0 1   


[distance_restraints]
1 39 0.0 0.1 0.5 0
2 40 0.0 0.1 0.5 0
3 41 0.0 0.1 0.5 0
4 42 0.0 0.1 0.5 0
5 43 0.0 0.1 0.5 0
6 44 0.0 0.1 0.5 0
7 45 0.0 0.1 0.5 0
8 46 0.0 0.1 0.5 0
9 47 0.0 0.1 0.5 0
10 48 0.0 0.1 0.5 0
11 49 0.0 0.1 0.5 0
12 50 0.0 0.1 0.5 0
13 51 0.0 0.1 0.5 0
14 52 0.0 0.1 0.5 0
15 53 0.0 0.1 0.5 0
16 54 0.0 0.1 0.5 0
17 55 0.0 0.1 0.5 0
18 56 0.0 0.1 0.5 0
19 57 0.0 0.1 0.5 0
20 58 0.0 0.1 0.5 0
21 59 0.0 0.1 0.5 0
22 60 0.0 0.1 0.5 0
