[MD]
steps                     5000
stepsize                  2.0
temperature               T_VAR
bath_coupling             10
shake_hydrogens           on
shake_solute              on
shake_solvent             on
lrf                       on
separate_scaling          on

[cut-offs]
solute_solvent            10
solute_solute             10
solvent_solvent           10
q_atom                    99
lrf                       99

[sphere]
shell_force               10.0
shell_radius              25

[solvent]
radial_force              60.0
polarisation              on
polarisation_force        20.0

[intervals]
output                    5
energy                    10
trajectory                100
non_bond                  25

[files]
topology                  dualtop.top
trajectory                md_0838_0162.dcd
restart                   md_0821_0179.re
energy                    md_0838_0162.en
final                     md_0838_0162.re
fep                       FEP_VAR

[trajectory_atoms]
not excluded

[lambdas]
0.838 0.162

[sequence_restraints]


[distance_restraints]
4667 4702 0.0 0.1 0.5 0
4668 4703 0.0 0.1 0.5 0
4669 4704 0.0 0.1 0.5 0
4670 4705 0.0 0.1 0.5 0
4671 4706 0.0 0.1 0.5 0
4672 4707 0.0 0.1 0.5 0
4673 4708 0.0 0.1 0.5 0
4674 4709 0.0 0.1 0.5 0
4675 4710 0.0 0.1 0.5 0
4676 4711 0.0 0.1 0.5 0
4677 4712 0.0 0.1 0.5 0
4678 4713 0.0 0.1 0.5 0
4679 4714 0.0 0.1 0.5 0
4680 4715 0.0 0.1 0.5 0
4681 4716 0.0 0.1 0.5 0
4682 4717 0.0 0.1 0.5 0
4683 4718 0.0 0.1 0.5 0
4684 4719 0.0 0.1 0.5 0
4685 4720 0.0 0.1 0.5 0
4687 4721 0.0 0.1 0.5 0
