[MD]
steps                     5000
stepsize                  2.0
temperature               T_VAR
bath_coupling             10
shake_hydrogens           on
shake_solute              on
shake_solvent             on
lrf                       on
separate_scaling          on

[cut-offs]
solute_solvent            10
solute_solute             10
solvent_solvent           10
q_atom                    99
lrf                       99

[sphere]
shell_force               10.0
shell_radius              25

[solvent]
radial_force              60.0
polarisation              on
polarisation_force        20.0

[intervals]
output                    5
energy                    10
trajectory                100
non_bond                  25

[files]
topology                  dualtop.top
trajectory                md_0995_0005.dcd
restart                   md_0994_0006.re
energy                    md_0995_0005.en
final                     md_0995_0005.re
fep                       FEP_VAR

[trajectory_atoms]
not excluded

[lambdas]
0.995 0.005

[sequence_restraints]
1      74      1.0 0 1   


[distance_restraints]
1 33 0.0 0.1 0.5 0
2 34 0.0 0.1 0.5 0
3 35 0.0 0.1 0.5 0
4 36 0.0 0.1 0.5 0
5 37 0.0 0.1 0.5 0
6 38 0.0 0.1 0.5 0
7 39 0.0 0.1 0.5 0
8 40 0.0 0.1 0.5 0
9 41 0.0 0.1 0.5 0
10 42 0.0 0.1 0.5 0
11 43 0.0 0.1 0.5 0
12 44 0.0 0.1 0.5 0
13 45 0.0 0.1 0.5 0
14 46 0.0 0.1 0.5 0
15 47 0.0 0.1 0.5 0
16 48 0.0 0.1 0.5 0
17 49 0.0 0.1 0.5 0
18 50 0.0 0.1 0.5 0
19 51 0.0 0.1 0.5 0
21 52 0.0 0.1 0.5 0
