[MD]
steps                     5000
stepsize                  2.0
temperature               T_VAR
bath_coupling             10
shake_hydrogens           on
shake_solute              on
shake_solvent             on
lrf                       on
separate_scaling          on

[cut-offs]
solute_solvent            10
solute_solute             10
solvent_solvent           10
q_atom                    99
lrf                       99

[sphere]
shell_force               10.0
shell_radius              25

[solvent]
radial_force              60.0
polarisation              on
polarisation_force        20.0

[intervals]
output                    5
energy                    10
trajectory                100
non_bond                  25

[files]
topology                  dualtop.top
trajectory                md_0031_0969.dcd
restart                   md_0033_0967.re
energy                    md_0031_0969.en
final                     md_0031_0969.re
fep                       FEP_VAR

[trajectory_atoms]
not excluded

[lambdas]
0.031 0.969

[sequence_restraints]


[distance_restraints]
4667 4706 0.0 0.1 0.5 0
4668 4707 0.0 0.1 0.5 0
4669 4708 0.0 0.1 0.5 0
4670 4709 0.0 0.1 0.5 0
4671 4710 0.0 0.1 0.5 0
4672 4711 0.0 0.1 0.5 0
4673 4712 0.0 0.1 0.5 0
4674 4713 0.0 0.1 0.5 0
4675 4714 0.0 0.1 0.5 0
4676 4715 0.0 0.1 0.5 0
4677 4716 0.0 0.1 0.5 0
4678 4717 0.0 0.1 0.5 0
4679 4718 0.0 0.1 0.5 0
4680 4719 0.0 0.1 0.5 0
4681 4720 0.0 0.1 0.5 0
4682 4721 0.0 0.1 0.5 0
4683 4722 0.0 0.1 0.5 0
4684 4723 0.0 0.1 0.5 0
4685 4724 0.0 0.1 0.5 0
4686 4726 0.0 0.1 0.5 0
